(set-logic ALL)
(declare-fun var0 () String)
(assert (str.in_re var0 (re.++ (re.union (re.+ (str.to_re "00")) (re.+ (str.to_re "11"))) (re.++ (re.+ (re.union (str.to_re "22") (str.to_re "333"))) (re.++ (re.union (re.union (str.to_re "444") (str.to_re "555")) (re.union (str.to_re "66") (str.to_re "777"))) (re.++ (re.+ (re.* (str.to_re "8"))) (re.++ (re.union (re.* (str.to_re "999")) (re.* (str.to_re "aa"))) (re.++ (re.* (re.union (str.to_re "bb") (str.to_re "ccc"))) (re.++ (re.union (re.union (str.to_re "dd") (str.to_re "e")) (re.union (str.to_re "ff") (str.to_re "gg"))) (re.++ (re.union (re.union (str.to_re "h") (str.to_re "i")) (re.union (str.to_re "jj") (str.to_re "kk"))) (re.++ (re.+ (re.* (str.to_re "l"))) (re.++ (re.* (re.+ (str.to_re "m"))) (re.++ (re.union (re.union (str.to_re "n") (str.to_re "o")) (re.union (str.to_re "pp") (str.to_re "q"))) (re.++ (re.* (re.union (str.to_re "rrr") (str.to_re "sss"))) (re.++ (re.+ (re.+ (str.to_re "ttt"))) (re.++ (re.* (re.+ (str.to_re "uu"))) (re.++ (re.* (re.+ (str.to_re "vvv"))) (re.++ (re.* (re.union (str.to_re "ww") (str.to_re "xx"))) (re.++ (re.+ (re.+ (str.to_re "yyy"))) (re.++ (re.+ (re.* (str.to_re "zz"))) (re.++ (re.* (re.* (str.to_re "AAA"))) (re.++ (re.* (re.* (str.to_re "BBB"))) (re.++ (re.+ (re.+ (str.to_re "C"))) (re.++ (re.+ (re.* (str.to_re "DD"))) (re.++ (re.* (re.* (str.to_re "E"))) (re.++ (re.union (re.+ (str.to_re "FF")) (re.+ (str.to_re "G"))) (re.++ (re.union (re.+ (str.to_re "HHH")) (re.+ (str.to_re "I"))) (re.++ (re.union (re.union (str.to_re "JJ") (str.to_re "KKK")) (re.union (str.to_re "L") (str.to_re "MMM"))) (re.++ (re.+ (re.+ (str.to_re "NN"))) (re.++ (re.* (re.union (str.to_re "OO") (str.to_re "PPP"))) (re.+ (re.union (str.to_re "QQ") (str.to_re "RR")))))))))))))))))))))))))))))))))
(check-sat)